c Reduced graph for myciel6 generated by Cyril Grelier
p edge 95 755
e 1 17
e 1 18
e 1 20
e 1 31
e 1 32
e 1 33
e 1 34
e 1 35
e 1 47
e 1 48
e 1 49
e 1 50
e 1 51
e 1 52
e 1 53
e 1 59
e 1 60
e 1 61
e 1 62
e 1 63
e 1 64
e 1 70
e 1 71
e 1 72
e 1 73
e 1 74
e 1 75
e 1 76
e 1 77
e 1 78
e 1 79
e 1 80
e 1 81
e 1 82
e 1 83
e 1 84
e 1 85
e 1 86
e 1 87
e 1 88
e 1 89
e 1 90
e 1 91
e 1 92
e 1 93
e 1 94
e 1 95
e 2 16
e 2 19
e 2 26
e 2 27
e 2 28
e 2 29
e 2 30
e 2 41
e 2 42
e 2 43
e 2 44
e 2 45
e 2 46
e 2 53
e 2 54
e 2 55
e 2 56
e 2 57
e 2 58
e 2 59
e 2 65
e 2 66
e 2 67
e 2 68
e 2 69
e 2 70
e 2 71
e 2 72
e 2 73
e 2 74
e 2 80
e 2 81
e 2 82
e 2 83
e 2 84
e 2 85
e 2 86
e 2 87
e 2 88
e 2 89
e 2 90
e 2 91
e 2 92
e 2 93
e 2 94
e 2 95
e 3 15
e 3 21
e 3 22
e 3 23
e 3 24
e 3 25
e 3 36
e 3 37
e 3 38
e 3 39
e 3 40
e 3 46
e 3 52
e 3 54
e 3 55
e 3 56
e 3 57
e 3 58
e 3 60
e 3 61
e 3 62
e 3 63
e 3 64
e 3 65
e 3 66
e 3 67
e 3 68
e 3 69
e 3 75
e 3 76
e 3 77
e 3 78
e 3 79
e 3 85
e 3 86
e 3 87
e 3 88
e 3 89
e 3 90
e 3 91
e 3 92
e 3 93
e 3 94
e 3 95
e 4 10
e 4 11
e 4 12
e 4 13
e 4 14
e 4 36
e 4 37
e 4 38
e 4 39
e 4 40
e 4 41
e 4 42
e 4 43
e 4 44
e 4 45
e 4 47
e 4 48
e 4 49
e 4 50
e 4 51
e 4 65
e 4 66
e 4 67
e 4 68
e 4 69
e 4 75
e 4 76
e 4 77
e 4 78
e 4 79
e 4 80
e 4 81
e 4 82
e 4 83
e 4 84
e 4 91
e 4 92
e 4 93
e 4 94
e 4 95
e 5 6
e 5 8
e 5 11
e 5 13
e 5 22
e 5 24
e 5 27
e 5 29
e 5 32
e 5 34
e 5 37
e 5 39
e 5 42
e 5 44
e 5 48
e 5 50
e 5 55
e 5 57
e 5 61
e 5 63
e 5 66
e 5 68
e 5 71
e 5 73
e 5 76
e 5 78
e 5 81
e 5 83
e 5 87
e 5 89
e 5 92
e 5 94
e 6 7
e 6 10
e 6 12
e 6 21
e 6 23
e 6 26
e 6 28
e 6 31
e 6 33
e 6 36
e 6 38
e 6 41
e 6 43
e 6 47
e 6 49
e 6 54
e 6 56
e 6 60
e 6 62
e 6 65
e 6 67
e 6 70
e 6 72
e 6 75
e 6 77
e 6 80
e 6 82
e 6 86
e 6 88
e 6 91
e 6 93
e 7 9
e 7 11
e 7 14
e 7 22
e 7 25
e 7 27
e 7 30
e 7 32
e 7 35
e 7 37
e 7 40
e 7 42
e 7 45
e 7 48
e 7 51
e 7 55
e 7 58
e 7 61
e 7 64
e 7 66
e 7 69
e 7 71
e 7 74
e 7 76
e 7 79
e 7 81
e 7 84
e 7 87
e 7 90
e 7 92
e 7 95
e 8 9
e 8 10
e 8 14
e 8 21
e 8 25
e 8 26
e 8 30
e 8 31
e 8 35
e 8 36
e 8 40
e 8 41
e 8 45
e 8 47
e 8 51
e 8 54
e 8 58
e 8 60
e 8 64
e 8 65
e 8 69
e 8 70
e 8 74
e 8 75
e 8 79
e 8 80
e 8 84
e 8 86
e 8 90
e 8 91
e 8 95
e 9 12
e 9 13
e 9 23
e 9 24
e 9 28
e 9 29
e 9 33
e 9 34
e 9 38
e 9 39
e 9 43
e 9 44
e 9 49
e 9 50
e 9 56
e 9 57
e 9 62
e 9 63
e 9 67
e 9 68
e 9 72
e 9 73
e 9 77
e 9 78
e 9 82
e 9 83
e 9 88
e 9 89
e 9 93
e 9 94
e 10 15
e 10 19
e 10 20
e 10 22
e 10 24
e 10 27
e 10 29
e 10 32
e 10 34
e 10 46
e 10 52
e 10 55
e 10 57
e 10 59
e 10 61
e 10 63
e 10 71
e 10 73
e 10 85
e 10 87
e 10 89
e 11 15
e 11 19
e 11 20
e 11 21
e 11 23
e 11 26
e 11 28
e 11 31
e 11 33
e 11 46
e 11 52
e 11 54
e 11 56
e 11 59
e 11 60
e 11 62
e 11 70
e 11 72
e 11 85
e 11 86
e 11 88
e 12 15
e 12 19
e 12 20
e 12 22
e 12 25
e 12 27
e 12 30
e 12 32
e 12 35
e 12 46
e 12 52
e 12 55
e 12 58
e 12 59
e 12 61
e 12 64
e 12 71
e 12 74
e 12 85
e 12 87
e 12 90
e 13 15
e 13 19
e 13 20
e 13 21
e 13 25
e 13 26
e 13 30
e 13 31
e 13 35
e 13 46
e 13 52
e 13 54
e 13 58
e 13 59
e 13 60
e 13 64
e 13 70
e 13 74
e 13 85
e 13 86
e 13 90
e 14 15
e 14 19
e 14 20
e 14 23
e 14 24
e 14 28
e 14 29
e 14 33
e 14 34
e 14 46
e 14 52
e 14 56
e 14 57
e 14 59
e 14 62
e 14 63
e 14 72
e 14 73
e 14 85
e 14 88
e 14 89
e 15 16
e 15 18
e 15 41
e 15 42
e 15 43
e 15 44
e 15 45
e 15 47
e 15 48
e 15 49
e 15 50
e 15 51
e 15 53
e 15 80
e 15 81
e 15 82
e 15 83
e 15 84
e 16 17
e 16 21
e 16 22
e 16 23
e 16 24
e 16 25
e 16 36
e 16 37
e 16 38
e 16 39
e 16 40
e 16 52
e 16 60
e 16 61
e 16 62
e 16 63
e 16 64
e 16 75
e 16 76
e 16 77
e 16 78
e 16 79
e 17 19
e 17 26
e 17 27
e 17 28
e 17 29
e 17 30
e 17 41
e 17 42
e 17 43
e 17 44
e 17 45
e 17 46
e 17 54
e 17 55
e 17 56
e 17 57
e 17 58
e 17 65
e 17 66
e 17 67
e 17 68
e 17 69
e 18 21
e 18 22
e 18 23
e 18 24
e 18 25
e 18 36
e 18 37
e 18 38
e 18 39
e 18 40
e 18 46
e 18 54
e 18 55
e 18 56
e 18 57
e 18 58
e 18 65
e 18 66
e 18 67
e 18 68
e 18 69
e 19 36
e 19 37
e 19 38
e 19 39
e 19 40
e 19 47
e 19 48
e 19 49
e 19 50
e 19 51
e 19 75
e 19 76
e 19 77
e 19 78
e 19 79
e 20 36
e 20 37
e 20 38
e 20 39
e 20 40
e 20 41
e 20 42
e 20 43
e 20 44
e 20 45
e 20 65
e 20 66
e 20 67
e 20 68
e 20 69
e 21 27
e 21 29
e 21 32
e 21 34
e 21 42
e 21 44
e 21 48
e 21 50
e 21 53
e 21 71
e 21 73
e 21 81
e 21 83
e 22 26
e 22 28
e 22 31
e 22 33
e 22 41
e 22 43
e 22 47
e 22 49
e 22 53
e 22 70
e 22 72
e 22 80
e 22 82
e 23 27
e 23 30
e 23 32
e 23 35
e 23 42
e 23 45
e 23 48
e 23 51
e 23 53
e 23 71
e 23 74
e 23 81
e 23 84
e 24 26
e 24 30
e 24 31
e 24 35
e 24 41
e 24 45
e 24 47
e 24 51
e 24 53
e 24 70
e 24 74
e 24 80
e 24 84
e 25 28
e 25 29
e 25 33
e 25 34
e 25 43
e 25 44
e 25 49
e 25 50
e 25 53
e 25 72
e 25 73
e 25 82
e 25 83
e 26 32
e 26 34
e 26 37
e 26 39
e 26 48
e 26 50
e 26 61
e 26 63
e 26 76
e 26 78
e 27 31
e 27 33
e 27 36
e 27 38
e 27 47
e 27 49
e 27 60
e 27 62
e 27 75
e 27 77
e 28 32
e 28 35
e 28 37
e 28 40
e 28 48
e 28 51
e 28 61
e 28 64
e 28 76
e 28 79
e 29 31
e 29 35
e 29 36
e 29 40
e 29 47
e 29 51
e 29 60
e 29 64
e 29 75
e 29 79
e 30 33
e 30 34
e 30 38
e 30 39
e 30 49
e 30 50
e 30 62
e 30 63
e 30 77
e 30 78
e 31 37
e 31 39
e 31 42
e 31 44
e 31 55
e 31 57
e 31 66
e 31 68
e 32 36
e 32 38
e 32 41
e 32 43
e 32 54
e 32 56
e 32 65
e 32 67
e 33 37
e 33 40
e 33 42
e 33 45
e 33 55
e 33 58
e 33 66
e 33 69
e 34 36
e 34 40
e 34 41
e 34 45
e 34 54
e 34 58
e 34 65
e 34 69
e 35 38
e 35 39
e 35 43
e 35 44
e 35 56
e 35 57
e 35 67
e 35 68
e 36 53
e 36 59
e 36 71
e 36 73
e 37 53
e 37 59
e 37 70
e 37 72
e 38 53
e 38 59
e 38 71
e 38 74
e 39 53
e 39 59
e 39 70
e 39 74
e 40 53
e 40 59
e 40 72
e 40 73
e 41 52
e 41 61
e 41 63
e 42 52
e 42 60
e 42 62
e 43 52
e 43 61
e 43 64
e 44 52
e 44 60
e 44 64
e 45 52
e 45 62
e 45 63
e 46 47
e 46 48
e 46 49
e 46 50
e 46 51
e 47 55
e 47 57
e 48 54
e 48 56
e 49 55
e 49 58
e 50 54
e 50 58
e 51 56
e 51 57
